Geographic Exponential Decay
80 188 154 240 200 97 295 114 77 108 119 173 76 223 28 184 89 56 210 308 110 181 190 137 133 35 278 23 4 73 2 8 42 158 61 220 250 121 26 98 258 248 291 148 221 262 256 9 83 186 155 10 267 128 122 78 208 273 284 292 115 310 268 169 37 212 237 129 207 43 99 178 247 70 95 255 68 51 203 201 138
p edge 320 1326
e 0 7 1.0
e 1 46 1.0
e 2 178 39.0
e 2 77 77.0
e 2 253 28.0
e 2 279 100.0
e 2 242 81.0
e 2 241 65.0
e 2 183 78.0
e 2 215 37.0
e 2 13 60.0
e 2 92 63.0
e 2 163 53.0
e 2 76 10.0
e 2 61 38.0
e 2 0 76.0
e 2 318 95.0
e 2 88 71.0
e 2 132 41.0
e 3 82 2.0
e 4 191 40.0
e 4 48 76.0
e 4 204 33.0
e 4 35 55.0
e 4 115 10.0
e 4 137 4.0
e 4 240 26.0
e 4 312 3.0
e 4 225 18.0
e 4 33 45.0
e 4 244 49.0
e 4 124 65.0
e 4 61 63.0
e 4 156 86.0
e 4 292 87.0
e 4 155 93.0
e 4 141 95.0
e 5 177 3.0
e 6 13 3.0
e 8 218 43.0
e 8 209 94.0
e 8 154 6.0
e 8 316 72.0
e 8 310 98.0
e 8 286 88.0
e 8 21 7.0
e 8 79 59.0
e 8 253 43.0
e 8 50 64.0
e 8 43 97.0
e 8 39 83.0
e 8 91 79.0
e 8 36 30.0
e 8 37 6.0
e 8 24 93.0
e 8 255 60.0
e 9 168 32.0
e 9 84 79.0
e 9 305 97.0
e 9 256 42.0
e 9 176 88.0
e 9 195 13.0
e 9 296 51.0
e 9 144 13.0
e 9 157 48.0
e 9 151 68.0
e 9 290 76.0
e 9 250 43.0
e 9 38 21.0
e 9 299 86.0
e 9 135 69.0
e 9 5 47.0
e 9 178 48.0
e 10 68 86.0
e 10 238 69.0
e 10 215 57.0
e 10 104 95.0
e 10 232 78.0
e 10 303 40.0
e 10 310 53.0
e 10 216 44.0
e 10 280 48.0
e 10 100 54.0
e 10 96 47.0
e 10 237 19.0
e 10 85 64.0
e 10 239 57.0
e 10 20 82.0
e 10 127 39.0
e 10 222 49.0
e 11 17 8.0
e 11 32 2.0
e 12 228 1.0
e 14 294 11.0
e 14 280 1.0
e 14 137 84.0
e 15 216 12.0
e 16 197 2.0
e 16 274 2.0
e 17 138 11.0
e 17 2 22.0
e 18 255 85.0
e 18 275 4.0
e 18 41 6.0
e 18 17 1.0
e 18 246 11.0
e 19 36 8.0
e 19 289 8.0
e 19 260 1.0
e 20 309 6.0
e 21 58 38.0
e 21 127 45.0
e 21 267 60.0
e 21 11 46.0
e 21 155 24.0
e 21 42 45.0
e 21 292 89.0
e 21 266 27.0
e 22 33 1.0
e 22 168 2.0
e 22 160 6.0
e 23 57 54.0
e 23 312 97.0
e 23 307 38.0
e 23 246 64.0
e 23 148 68.0
e 23 150 97.0
e 23 156 47.0
e 23 247 100.0
e 23 192 7.0
e 23 228 88.0
e 23 137 44.0
e 23 238 88.0
e 23 316 27.0
e 23 186 87.0
e 23 212 39.0
e 23 232 97.0
e 23 203 90.0
e 24 44 4.0
e 25 291 52.0
e 25 212 59.0
e 26 5 61.0
e 26 255 19.0
e 26 289 26.0
e 26 158 41.0
e 26 21 2.0
e 26 156 32.0
e 26 129 11.0
e 26 68 56.0
e 26 80 47.0
e 26 218 75.0
e 26 288 21.0
e 26 7 69.0
e 26 107 40.0
e 26 168 100.0
e 26 116 88.0
e 26 104 38.0
e 26 192 51.0
e 27 201 17.0
e 28 27 63.0
e 28 236 100.0
e 28 91 42.0
e 28 245 76.0
e 28 150 27.0
e 28 260 16.0
e 28 95 6.0
e 28 101 53.0
e 28 288 38.0
e 28 49 16.0
e 28 173 48.0
e 28 206 75.0
e 28 29 3.0
e 28 296 6.0
e 28 82 13.0
e 28 211 75.0
e 28 237 52.0
e 30 52 3.0
e 31 309 4.0
e 32 67 4.0
e 34 32 5.0
e 35 121 10.0
e 35 211 81.0
e 35 19 98.0
e 35 83 57.0
e 35 8 74.0
e 35 105 37.0
e 35 316 95.0
e 35 16 16.0
e 35 32 74.0
e 35 103 62.0
e 35 76 76.0
e 35 189 81.0
e 35 188 4.0
e 35 87 48.0
e 35 54 49.0
e 35 78 65.0
e 37 271 62.0
e 37 45 80.0
e 37 298 70.0
e 37 220 74.0
e 37 75 32.0
e 37 299 86.0
e 37 273 94.0
e 37 145 50.0
e 37 250 22.0
e 37 286 2.0
e 37 118 73.0
e 37 164 79.0
e 37 149 58.0
e 37 223 71.0
e 37 57 70.0
e 37 221 61.0
e 38 296 3.0
e 39 186 53.0
e 39 27 3.0
e 39 61 63.0
e 39 253 1.0
e 40 57 1.0
e 40 215 2.0
e 41 123 3.0
e 42 173 75.0
e 42 206 46.0
e 42 102 23.0
e 42 103 80.0
e 42 267 80.0
e 42 119 60.0
e 42 99 55.0
e 42 268 38.0
e 42 241 53.0
e 42 190 33.0
e 42 87 82.0
e 42 191 21.0
e 42 31 90.0
e 42 310 51.0
e 42 176 38.0
e 42 122 47.0
e 43 309 47.0
e 43 21 34.0
e 43 61 87.0
e 43 22 42.0
e 43 278 82.0
e 43 221 77.0
e 43 123 92.0
e 43 300 66.0
e 43 229 40.0
e 43 248 57.0
e 43 201 69.0
e 43 19 86.0
e 43 199 70.0
e 43 74 87.0
e 43 100 58.0
e 43 237 60.0
e 47 126 11.0
e 48 78 19.0
e 49 7 1.0
e 50 32 20.0
e 50 236 10.0
e 50 80 24.0
e 50 211 19.0
e 51 240 87.0
e 51 31 48.0
e 51 300 20.0
e 51 22 18.0
e 51 133 54.0
e 51 125 43.0
e 51 90 87.0
e 51 184 64.0
e 51 222 44.0
e 51 252 98.0
e 51 293 28.0
e 51 106 24.0
e 51 272 59.0
e 51 228 40.0
e 51 55 4.0
e 51 21 32.0
e 51 182 49.0
e 53 34 1.0
e 53 86 5.0
e 53 99 26.0
e 54 55 2.0
e 56 91 80.0
e 56 214 8.0
e 56 102 48.0
e 56 146 79.0
e 56 248 52.0
e 56 253 28.0
e 56 147 18.0
e 56 165 78.0
e 56 256 42.0
e 56 84 82.0
e 56 263 5.0
e 56 213 19.0
e 56 81 70.0
e 56 184 4.0
e 56 134 10.0
e 56 151 47.0
e 56 79 86.0
e 59 92 5.0
e 60 183 15.0
e 60 219 8.0
e 60 77 50.0
e 60 166 22.0
e 60 24 4.0
e 61 290 93.0
e 61 63 11.0
e 61 294 95.0
e 61 1 56.0
e 61 304 96.0
e 61 236 34.0
e 61 194 90.0
e 61 103 61.0
e 61 226 3.0
e 61 318 32.0
e 61 152 71.0
e 61 305 77.0
e 61 217 88.0
e 62 81 1.0
e 64 74 1.0
e 64 243 1.0
e 65 30 1.0
e 66 264 1.0
e 67 166 4.0
e 68 7 23.0
e 68 265 85.0
e 68 282 37.0
e 68 141 87.0
e 68 315 48.0
e 68 194 30.0
e 68 84 3.0
e 68 307 69.0
e 68 139 69.0
e 68 64 84.0
e 68 199 44.0
e 68 236 77.0
e 68 80 50.0
e 68 200 98.0
e 68 12 73.0
e 69 265 2.0
e 70 50 85.0
e 70 1 83.0
e 70 92 28.0
e 70 171 15.0
e 70 199 22.0
e 70 182 79.0
e 70 153 63.0
e 70 18 11.0
e 70 210 63.0
e 70 51 26.0
e 70 215 41.0
e 70 216 79.0
e 70 93 92.0
e 70 149 36.0
e 70 165 85.0
e 70 46 95.0
e 70 57 34.0
e 71 295 91.0
e 71 149 8.0
e 72 239 5.0
e 73 241 52.0
e 73 8 47.0
e 73 37 75.0
e 73 153 20.0
e 73 79 66.0
e 73 296 27.0
e 73 199 30.0
e 73 289 40.0
e 73 80 70.0
e 73 58 1.0
e 73 14 7.0
e 73 280 87.0
e 73 252 99.0
e 73 20 23.0
e 73 258 32.0
e 73 96 3.0
e 73 297 82.0
e 76 101 78.0
e 76 121 50.0
e 76 127 28.0
e 76 303 85.0
e 76 276 70.0
e 76 134 1.0
e 76 106 2.0
e 76 5 26.0
e 76 46 21.0
e 76 84 3.0
e 76 15 60.0
e 76 119 22.0
e 76 147 20.0
e 76 49 23.0
e 76 198 91.0
e 77 170 75.0
e 77 249 32.0
e 77 82 66.0
e 77 85 1.0
e 77 0 55.0
e 77 48 60.0
e 77 300 24.0
e 77 45 88.0
e 77 115 40.0
e 77 121 26.0
e 77 12 90.0
e 77 90 13.0
e 77 83 90.0
e 77 219 8.0
e 77 104 19.0
e 78 12 60.0
e 78 92 89.0
e 78 216 23.0
e 78 61 70.0
e 78 261 98.0
e 78 67 13.0
e 78 294 92.0
e 78 131 49.0
e 78 209 20.0
e 78 55 1.0
e 78 308 42.0
e 78 176 22.0
e 78 295 7.0
e 78 79 40.0
e 78 119 49.0
e 83 122 70.0
e 83 9 25.0
e 83 209 78.0
e 83 37 32.0
e 83 67 12.0
e 83 317 42.0
e 83 150 65.0
e 83 318 11.0
e 83 0 76.0
e 83 255 54.0
e 83 211 92.0
e 83 270 52.0
e 83 15 17.0
e 83 118 53.0
e 83 100 100.0
e 85 27 5.0
e 87 144 10.0
e 89 243 17.0
e 89 293 56.0
e 89 267 3.0
e 89 74 91.0
e 89 95 53.0
e 89 90 56.0
e 89 6 21.0
e 89 143 70.0
e 89 188 18.0
e 89 205 10.0
e 89 135 7.0
e 89 157 67.0
e 89 249 63.0
e 89 263 24.0
e 89 39 81.0
e 89 247 12.0
e 89 88 52.0
e 94 34 2.0
e 94 44 2.0
e 95 85 15.0
e 95 301 61.0
e 95 157 39.0
e 95 144 72.0
e 95 287 18.0
e 95 289 99.0
e 95 76 65.0
e 95 200 12.0
e 95 50 18.0
e 95 205 12.0
e 95 11 43.0
e 95 145 44.0
e 95 282 67.0
e 95 30 89.0
e 95 288 28.0
e 97 98 21.0
e 97 217 10.0
e 97 119 28.0
e 97 13 87.0
e 97 257 14.0
e 97 14 99.0
e 97 203 39.0
e 97 306 73.0
e 97 224 19.0
e 97 107 63.0
e 97 104 55.0
e 97 75 99.0
e 97 218 8.0
e 97 160 15.0
e 97 47 2.0
e 97 63 73.0
e 97 318 85.0
e 98 150 17.0
e 98 99 25.0
e 98 238 95.0
e 98 302 71.0
e 98 28 36.0
e 98 229 79.0
e 98 295 88.0
e 98 152 93.0
e 98 196 76.0
e 98 276 88.0
e 98 312 47.0
e 98 310 2.0
e 98 63 42.0
e 98 100 76.0
e 98 239 30.0
e 98 58 4.0
e 99 47 6.0
e 99 190 18.0
e 99 123 94.0
e 99 147 80.0
e 99 295 30.0
e 99 111 88.0
e 99 244 49.0
e 99 96 38.0
e 99 37 8.0
e 99 81 12.0
e 99 164 79.0
e 99 13 8.0
e 99 279 92.0
e 99 77 49.0
e 102 88 1.0
e 107 25 38.0
e 107 10 61.0
e 107 81 43.0
e 107 304 26.0
e 107 108 85.0
e 107 82 6.0
e 107 193 7.0
e 108 133 6.0
e 108 174 80.0
e 108 311 86.0
e 108 120 23.0
e 108 306 16.0
e 108 316 58.0
e 108 193 21.0
e 108 234 64.0
e 108 97 22.0
e 108 14 92.0
e 108 159 100.0
e 108 312 55.0
e 108 284 31.0
e 108 170 89.0
e 108 105 16.0
e 108 22 15.0
e 109 60 20.0
e 109 311 18.0
e 110 85 3.0
e 110 102 17.0
e 110 319 33.0
e 110 274 92.0
e 110 252 73.0
e 110 98 66.0
e 110 18 75.0
e 110 99 9.0
e 110 304 84.0
e 110 39 12.0
e 110 189 74.0
e 110 139 90.0
e 110 122 8.0
e 110 23 60.0
e 110 172 38.0
e 110 135 63.0
e 110 155 64.0
e 111 25 3.0
e 111 209 6.0
e 112 297 1.0
e 113 311 24.0
e 113 269 6.0
e 114 123 36.0
e 114 287 77.0
e 114 105 18.0
e 114 283 83.0
e 114 284 83.0
e 114 99 89.0
e 114 98 30.0
e 114 219 12.0
e 114 101 10.0
e 114 85 21.0
e 114 216 68.0
e 114 242 69.0
e 114 152 42.0
e 114 128 77.0
e 114 17 29.0
e 114 153 20.0
e 114 304 29.0
e 115 297 57.0
e 115 258 93.0
e 115 179 52.0
e 115 203 40.0
e 115 307 31.0
e 115 191 87.0
e 115 222 53.0
e 115 285 9.0
e 115 295 65.0
e 115 144 26.0
e 115 212 21.0
e 115 75 35.0
e 115 15 13.0
e 115 146 84.0
e 115 224 6.0
e 117 254 2.0
e 119 23 41.0
e 119 92 36.0
e 119 206 81.0
e 119 170 66.0
e 119 43 97.0
e 119 164 71.0
e 119 197 46.0
e 119 95 2.0
e 119 127 93.0
e 119 134 9.0
e 119 233 97.0
e 119 73 86.0
e 119 178 83.0
e 121 273 30.0
e 121 31 5.0
e 121 107 25.0
e 121 82 18.0
e 121 28 69.0
e 121 123 18.0
e 121 179 20.0
e 121 18 77.0
e 121 157 7.0
e 121 212 74.0
e 121 113 76.0
e 121 282 16.0
e 121 83 91.0
e 121 55 12.0
e 122 262 24.0
e 122 259 100.0
e 122 142 27.0
e 122 16 57.0
e 122 252 73.0
e 122 152 95.0
e 122 224 35.0
e 122 86 7.0
e 122 307 36.0
e 122 69 85.0
e 122 101 92.0
e 122 280 57.0
e 122 52 58.0
e 122 17 74.0
e 126 299 1.0
e 126 145 5.0
e 126 52 7.0
e 126 45 6.0
e 128 169 25.0
e 128 44 51.0
e 128 272 43.0
e 128 203 38.0
e 128 83 20.0
e 128 299 77.0
e 128 311 57.0
e 128 167 88.0
e 128 98 58.0
e 128 40 58.0
e 128 76 79.0
e 128 225 13.0
e 128 319 56.0
e 128 139 72.0
e 128 75 59.0
e 128 96 2.0
e 129 225 98.0
e 129 242 5.0
e 129 166 27.0
e 129 174 37.0
e 129 49 60.0
e 129 164 30.0
e 129 241 95.0
e 129 38 7.0
e 129 229 78.0
e 129 1 23.0
e 129 212 32.0
e 129 261 42.0
e 129 260 95.0
e 129 34 75.0
e 129 179 4.0
e 129 205 93.0
e 130 19 12.0
e 131 195 6.0
e 132 95 81.0
e 132 26 24.0
e 133 274 61.0
e 133 220 5.0
e 133 275 12.0
e 133 93 4.0
e 133 184 15.0
e 133 156 68.0
e 133 319 54.0
e 133 289 58.0
e 133 248 31.0
e 133 284 6.0
e 133 2 59.0
e 133 240 50.0
e 133 86 9.0
e 133 111 71.0
e 133 199 99.0
e 136 265 11.0
e 136 283 5.0
e 136 59 1.0
e 137 285 96.0
e 137 218 80.0
e 137 195 96.0
e 137 16 83.0
e 137 145 43.0
e 137 208 42.0
e 137 146 54.0
e 137 110 53.0
e 137 268 43.0
e 137 87 2.0
e 137 281 5.0
e 137 44 37.0
e 137 63 10.0
e 137 219 7.0
e 138 286 67.0
e 138 287 61.0
e 138 53 50.0
e 138 314 30.0
e 138 305 43.0
e 138 188 92.0
e 138 300 15.0
e 138 139 38.0
e 138 293 71.0
e 138 187 89.0
e 138 292 88.0
e 138 153 62.0
e 138 244 58.0
e 138 145 76.0
e 138 259 53.0
e 138 189 59.0
e 140 300 47.0
e 140 83 57.0
e 140 181 71.0
e 140 99 30.0
e 140 61 19.0
e 140 38 13.0
e 140 200 98.0
e 140 165 35.0
e 140 297 3.0
e 148 86 72.0
e 148 308 23.0
e 148 226 26.0
e 148 267 25.0
e 148 71 41.0
e 148 2 62.0
e 148 39 73.0
e 148 188 71.0
e 148 266 75.0
e 148 70 100.0
e 148 217 13.0
e 148 154 75.0
e 148 231 89.0
e 148 257 37.0
e 148 93 38.0
e 148 64 22.0
e 149 76 97.0
e 149 48 2.0
e 154 119 54.0
e 154 291 39.0
e 154 309 54.0
e 154 73 43.0
e 154 33 35.0
e 154 135 70.0
e 154 216 100.0
e 154 87 11.0
e 154 109 64.0
e 154 107 25.0
e 154 114 78.0
e 154 299 36.0
e 154 20 74.0
e 154 129 46.0
e 154 187 52.0
e 155 183 13.0
e 155 172 5.0
e 155 6 47.0
e 155 223 23.0
e 155 204 6.0
e 155 184 5.0
e 155 54 49.0
e 155 40 90.0
e 155 203 88.0
e 155 238 53.0
e 155 25 28.0
e 155 100 63.0
e 155 8 71.0
e 155 93 64.0
e 158 3 53.0
e 158 45 9.0
e 158 239 95.0
e 158 207 82.0
e 158 224 73.0
e 158 301 63.0
e 158 153 70.0
e 158 67 94.0
e 158 250 46.0
e 158 107 90.0
e 158 206 33.0
e 158 266 97.0
e 158 165 94.0
e 158 235 66.0
e 158 124 54.0
e 158 302 68.0
e 159 46 21.0
e 159 64 14.0
e 159 3 22.0
e 159 247 40.0
e 161 225 2.0
e 162 278 75.0
e 162 189 6.0
e 162 136 3.0
e 169 192 54.0
e 169 100 100.0
e 169 306 11.0
e 169 194 96.0
e 169 240 10.0
e 169 102 48.0
e 169 137 87.0
e 169 134 34.0
e 169 53 49.0
e 169 140 62.0
e 169 166 65.0
e 169 190 33.0
e 169 142 36.0
e 169 26 70.0
e 169 263 47.0
e 169 109 81.0
e 171 203 4.0
e 173 3 98.0
e 173 116 79.0
e 173 240 97.0
e 173 97 1.0
e 173 301 59.0
e 173 50 23.0
e 173 231 31.0
e 173 105 93.0
e 173 95 83.0
e 173 153 50.0
e 173 87 3.0
e 173 121 42.0
e 173 43 66.0
e 173 256 63.0
e 173 199 56.0
e 175 136 7.0
e 176 250 51.0
e 176 40 21.0
e 177 274 14.0
e 177 36 19.0
e 177 33 20.0
e 177 162 19.0
e 178 20 21.0
e 178 132 33.0
e 178 315 68.0
e 178 212 33.0
e 178 267 41.0
e 178 286 5.0
e 178 200 68.0
e 178 303 26.0
e 178 23 91.0
e 178 282 12.0
e 178 52 49.0
e 178 230 42.0
e 178 257 87.0
e 178 133 11.0
e 180 51 14.0
e 181 167 75.0
e 181 35 33.0
e 181 154 44.0
e 181 190 8.0
e 181 233 67.0
e 181 309 82.0
e 181 11 5.0
e 181 313 95.0
e 181 24 28.0
e 181 94 65.0
e 181 155 19.0
e 181 234 49.0
e 181 120 24.0
e 181 103 19.0
e 181 62 91.0
e 181 282 77.0
e 184 191 70.0
e 184 212 70.0
e 184 24 77.0
e 184 154 51.0
e 184 282 57.0
e 184 110 84.0
e 184 260 29.0
e 184 301 37.0
e 184 207 5.0
e 184 254 60.0
e 184 26 27.0
e 184 118 43.0
e 184 169 67.0
e 185 268 83.0
e 186 119 17.0
e 186 287 27.0
e 186 286 10.0
e 186 235 25.0
e 186 131 55.0
e 186 4 39.0
e 186 174 35.0
e 186 248 44.0
e 186 51 99.0
e 186 166 27.0
e 186 28 71.0
e 186 187 63.0
e 186 42 20.0
e 186 120 32.0
e 186 310 94.0
e 188 155 13.0
e 188 91 64.0
e 188 119 54.0
e 188 302 21.0
e 188 291 42.0
e 188 49 97.0
e 188 70 41.0
e 188 151 25.0
e 188 279 67.0
e 188 6 82.0
e 188 239 56.0
e 188 226 85.0
e 188 196 94.0
e 190 279 32.0
e 190 191 67.0
e 190 175 72.0
e 190 43 50.0
e 190 29 96.0
e 190 229 98.0
e 190 30 29.0
e 190 139 70.0
e 190 145 98.0
e 190 56 56.0
e 190 242 34.0
e 190 35 75.0
e 190 68 34.0
e 195 304 9.0
e 195 301 24.0
e 200 35 6.0
e 200 308 63.0
e 200 167 85.0
e 200 4 17.0
e 200 60 76.0
e 200 131 59.0
e 200 132 20.0
e 200 283 75.0
e 200 123 67.0
e 200 29 61.0
e 200 272 57.0
e 200 303 27.0
e 200 172 42.0
e 201 257 75.0
e 201 106 79.0
e 201 219 42.0
e 201 126 92.0
e 201 94 17.0
e 201 243 49.0
e 201 235 89.0
e 201 73 28.0
e 201 47 9.0
e 201 315 72.0
e 201 178 83.0
e 201 65 72.0
e 201 140 50.0
e 201 305 92.0
e 201 228 92.0
e 202 147 18.0
e 202 198 24.0
e 202 212 91.0
e 202 69 16.0
e 202 194 17.0
e 203 116 99.0
e 203 276 72.0
e 203 29 90.0
e 203 106 25.0
e 203 136 72.0
e 203 102 48.0
e 203 9 65.0
e 203 121 50.0
e 203 249 77.0
e 203 113 29.0
e 203 305 58.0
e 207 48 59.0
e 207 185 45.0
e 207 177 2.0
e 207 306 1.0
e 207 315 76.0
e 207 146 48.0
e 207 72 5.0
e 207 248 65.0
e 207 10 53.0
e 207 36 97.0
e 207 288 39.0
e 207 243 50.0
e 207 120 70.0
e 207 221 79.0
e 207 94 84.0
e 208 108 100.0
e 208 254 27.0
e 208 204 17.0
e 208 66 5.0
e 208 262 37.0
e 208 203 80.0
e 208 308 64.0
e 208 255 77.0
e 208 269 53.0
e 208 283 13.0
e 208 281 11.0
e 208 213 13.0
e 208 210 4.0
e 208 161 96.0
e 208 38 44.0
e 208 101 81.0
e 210 230 44.0
e 210 308 2.0
e 210 57 23.0
e 210 41 37.0
e 210 88 91.0
e 210 293 43.0
e 210 54 82.0
e 210 42 80.0
e 210 131 52.0
e 210 148 93.0
e 210 149 55.0
e 210 61 25.0
e 210 53 52.0
e 210 182 24.0
e 210 66 87.0
e 212 245 60.0
e 212 276 69.0
e 212 230 38.0
e 212 41 59.0
e 212 89 26.0
e 212 156 52.0
e 212 226 72.0
e 212 167 95.0
e 212 125 86.0
e 220 68 42.0
e 220 77 43.0
e 220 9 9.0
e 220 237 40.0
e 220 161 63.0
e 220 269 35.0
e 220 10 37.0
e 220 266 51.0
e 220 148 64.0
e 220 89 86.0
e 220 227 66.0
e 220 243 32.0
e 220 78 13.0
e 220 208 51.0
e 220 183 53.0
e 221 227 88.0
e 221 232 51.0
e 221 112 28.0
e 221 233 21.0
e 221 237 10.0
e 221 249 74.0
e 221 135 96.0
e 221 210 63.0
e 221 193 80.0
e 221 302 81.0
e 221 290 77.0
e 221 214 57.0
e 221 276 92.0
e 221 41 71.0
e 223 42 96.0
e 223 4 55.0
e 223 283 80.0
e 223 227 24.0
e 223 267 43.0
e 223 108 61.0
e 223 135 19.0
e 223 205 82.0
e 223 210 91.0
e 223 230 36.0
e 223 243 15.0
e 223 54 67.0
e 223 56 95.0
e 223 248 91.0
e 223 58 76.0
e 230 56 21.0
e 237 308 37.0
e 237 59 57.0
e 237 249 83.0
e 237 175 26.0
e 237 281 80.0
e 237 60 9.0
e 237 78 32.0
e 237 234 9.0
e 237 62 78.0
e 237 65 6.0
e 237 181 14.0
e 237 66 21.0
e 240 59 34.0
e 240 301 42.0
e 240 244 2.0
e 240 317 10.0
e 240 283 36.0
e 240 298 50.0
e 240 292 57.0
e 240 230 28.0
e 240 151 39.0
e 240 159 56.0
e 240 138 49.0
e 240 251 91.0
e 244 90 1.0
e 245 117 8.0
e 247 141 78.0
e 247 163 21.0
e 247 108 14.0
e 247 278 56.0
e 247 265 30.0
e 247 290 37.0
e 247 62 72.0
e 247 288 73.0
e 247 78 42.0
e 247 65 100.0
e 247 91 7.0
e 247 210 100.0
e 247 68 57.0
e 247 69 25.0
e 248 70 73.0
e 248 217 76.0
e 248 71 90.0
e 248 168 63.0
e 248 72 76.0
e 248 149 44.0
e 248 200 65.0
e 248 291 6.0
e 248 191 54.0
e 248 74 38.0
e 248 128 78.0
e 250 71 34.0
e 250 77 18.0
e 250 195 29.0
e 250 109 93.0
e 250 137 84.0
e 250 301 15.0
e 250 313 53.0
e 250 270 37.0
e 250 174 35.0
e 250 181 52.0
e 250 72 60.0
e 250 114 93.0
e 250 89 7.0
e 255 97 65.0
e 255 154 21.0
e 255 110 73.0
e 255 112 7.0
e 255 111 36.0
e 255 295 25.0
e 255 217 88.0
e 255 113 14.0
e 255 308 80.0
e 255 278 32.0
e 255 138 74.0
e 255 114 59.0
e 256 111 60.0
e 256 184 88.0
e 256 190 9.0
e 256 277 89.0
e 256 140 98.0
e 256 258 14.0
e 256 231 44.0
e 256 168 62.0
e 256 112 93.0
e 256 143 27.0
e 256 162 44.0
e 256 311 18.0
e 256 243 90.0
e 256 115 67.0
e 258 298 14.0
e 258 116 87.0
e 258 254 95.0
e 258 117 92.0
e 258 118 13.0
e 258 180 32.0
e 258 212 4.0
e 258 121 34.0
e 258 230 46.0
e 258 240 82.0
e 258 220 77.0
e 258 122 73.0
e 258 124 27.0
e 258 132 50.0
e 262 181 74.0
e 262 115 99.0
e 262 250 30.0
e 262 117 92.0
e 262 169 73.0
e 262 243 35.0
e 262 195 19.0
e 262 124 43.0
e 262 125 87.0
e 262 277 46.0
e 262 191 98.0
e 262 227 68.0
e 262 212 42.0
e 262 126 48.0
e 262 128 60.0
e 267 255 88.0
e 267 191 21.0
e 267 115 66.0
e 267 220 86.0
e 267 202 1.0
e 267 122 54.0
e 267 125 68.0
e 267 317 63.0
e 267 192 37.0
e 267 262 10.0
e 267 126 25.0
e 268 234 41.0
e 268 264 7.0
e 268 254 25.0
e 268 291 34.0
e 268 262 26.0
e 268 186 73.0
e 268 138 39.0
e 268 275 88.0
e 268 122 41.0
e 268 187 51.0
e 268 292 39.0
e 268 197 9.0
e 268 175 40.0
e 268 208 94.0
e 273 182 79.0
e 273 128 93.0
e 273 295 91.0
e 273 281 59.0
e 273 207 19.0
e 273 141 74.0
e 273 192 6.0
e 273 129 65.0
e 273 176 8.0
e 273 269 4.0
e 273 208 2.0
e 273 130 67.0
e 273 133 88.0
e 273 146 78.0
e 273 259 98.0
e 278 240 6.0
e 278 220 30.0
e 278 170 5.0
e 278 129 60.0
e 278 283 3.0
e 278 176 34.0
e 278 148 99.0
e 278 130 72.0
e 278 258 62.0
e 278 133 83.0
e 278 155 16.0
e 278 169 34.0
e 278 244 8.0
e 284 130 54.0
e 284 137 11.0
e 284 232 23.0
e 284 141 37.0
e 284 142 32.0
e 284 170 33.0
e 284 301 93.0
e 284 317 99.0
e 284 143 60.0
e 284 149 36.0
e 284 158 11.0
e 284 159 85.0
e 284 160 47.0
e 284 197 61.0
e 291 294 25.0
e 291 292 83.0
e 291 207 33.0
e 291 244 15.0
e 291 142 4.0
e 291 143 64.0
e 291 247 62.0
e 291 158 90.0
e 291 258 53.0
e 291 212 78.0
e 291 159 33.0
e 291 227 57.0
e 292 244 94.0
e 292 200 100.0
e 292 158 44.0
e 292 163 83.0
e 292 160 71.0
e 292 202 32.0
e 292 161 95.0
e 292 162 86.0
e 292 190 84.0
e 292 283 2.0
e 292 171 89.0
e 295 256 81.0
e 295 160 11.0
e 295 245 58.0
e 295 298 80.0
e 295 235 56.0
e 295 221 1.0
e 295 163 7.0
e 295 277 39.0
e 295 313 18.0
e 295 308 77.0
e 308 270 27.0
e 308 171 73.0
e 308 319 70.0
e 308 172 75.0
e 308 173 61.0
e 308 176 27.0
e 308 177 1.0
e 308 178 84.0
e 308 184 88.0
e 310 171 48.0
e 310 177 7.0
e 310 172 57.0
e 310 227 85.0
e 310 267 73.0
e 310 173 93.0
e 310 178 4.0
e 310 240 16.0
e 310 184 76.0
e 310 245 52.0
e 310 179 78.0
e 310 231 42.0
e 314 221 1.0
e 314 173 53.0
e 319 193 3.0
e 319 180 15.0
e 319 221 33.0
e 319 185 19.0
e 319 222 17.0
